f:0
solution:
64 0 6 67 68 69 70 71 72 73 74 3 76 77 78 79 18 1 2 17 4 5 30 7 8 9 10 11 12 13 94 95 96 97 98 99 100 101 102 103 104 105 106 107 108 109 110 111 16 33 34 19 20 21 118 119 24 25 122 43 124 125 63 62 80 81 82 83 84 85 86 87 88 89 90 91 92 93 14 15 112 113 114 115 116 117 22 23 120 121 26 27 28 29 126 31 32 65 66 35 36 37 38 39 40 41 42 75 44 45 46 47 48 49 50 51 52 53 54 55 56 57 58 59 60 61 127 123 